12 32 3 10
2 20 11 11 20 13 7 4 17 11 18 5 14 6 20 9 5 11 4 20 4 2 13 5 8 13 8 6 2 8 2 17 
5.85 6.14 4.68 5.68 2.1 0.59 6.1 1.54 7.13 6.13 0.68 7.2 7.26 0.2 0.29 0.91 2.26 6.53 7.68 4.22 0.47 4.26 2.25 2.58 1.47 6.24 0.43 1.95 6.61 7.94 6.03 3.12 
1.2 2.61 5.29 7.28 7.89 6.29 1 1 4.2 0.29 4.65 0.99 4.17 4.94 6.24 7.13 1.49 6.86 4.52 5.61 1.54 1.66 1.68 3.13 7.9 4.48 6.63 7.42 1.46 0.71 3.34 2.71 
2.26 2.65 2.03 5.41 6.2 3.03 1.48 2.46 6.7 7.03 1.05 2.84 2.53 7.85 7.26 0.53 6.41 3.37 4.76 0.89 6.18 6.02 0.47 7.02 0.08 5.01 0.67 0.45 1.02 0.02 3.22 4.98 
4 4 4 4 4 4 4 4 4 4 4 4 4 4 4 4 4 4 4 4 4 4 4 4 4 4 4 4 4 4 4 4 
0.9 0.89 3.2 3.6 4.86 1.65 0.15 0.65 4.81 2.36 1.91 6.05 1.96 3.59 3.22 2.14 3.23 3.87 4.87 0.73 2.4 2.09 0.26 0.83 6.1 5.05 0.92 6.38 7.73 0.02 4.96 0.65 
6.61 5.43 0.18 5.84 3.19 3.52 0.86 7.82 4.15 4.15 7.4 6 3.69 4.98 6.1 4.14 5.74 5.87 2.11 7.65 6.53 1.9 0.68 1.8 4.85 4.37 4.42 7.13 0.66 1.71 1.34 5.91 
4.94 3.15 1.11 4.72 0.26 7.57 1.05 1.63 5.39 6.97 4.41 7.35 6.62 0.18 7.07 1.04 4.49 2.01 4.2 4.86 2.85 5.39 6.08 2.77 2.85 5.18 7.79 7.54 7.46 7.62 3.78 5.4 
2.12 6.51 1.89 0.03 1.11 2.05 6.09 4.68 4.13 0.68 5.27 3.95 2.64 3.57 2.58 2.68 3.68 2.52 2.93 0.41 1.18 0.03 3.06 4.41 1.98 3.54 2.91 5.01 5.75 4.03 2.74 6.43 
6.55 2.73 0.61 0.08 2.75 4.25 3.7 0.5 7.62 4.8 3.46 4 4.68 4.38 4.72 3.57 3.07 6.78 0.17 4.21 4.13 0.44 4.95 7.94 2.23 5 0.96 5.53 3.46 7.88 1.58 2.39 
6.47 4.94 3.62 4.56 4.7 0.95 1.98 4.64 4.68 7.15 0.86 1.52 6.35 2.19 3.83 1.99 7.61 3.39 4.74 4.62 6.78 2.56 6.65 7.44 1.94 7.67 6.99 0.51 4.97 1.65 2.93 3.17 
5.73 4.01 6.3 3.92 5.8 4.57 4.08 6.86 5.28 2.49 0.48 5.28 7.01 7.12 2.75 3 2.19 2.12 4.64 4 1.1 4.07 7.23 5.06 1.81 5.94 6.45 5.92 0.73 7.68 0.98 2.32 
0.13 2.84 4.9 4.77 1.43 2.9 1.15 0.9 7.65 0.06 3.94 0.64 5.75 3.75 4.58 0.37 1.07 5.16 0.6 2.46 0.07 5.1 3 5.66 5.65 7.23 0.3 6.3 6.39 4.74 3.3 1.62 
1 1 1 1 1 1 1 1 1 1 1 1 1 1 1 1 1 1 1 1 1 1 1 1 1 1 1 1 1 1 1 1 
1 1 1 1 1 1 1 1 1 1 1 1 1 1 1 1 1 1 1 1 1 1 1 1 1 1 1 1 1 1 1 1 
1 1 1 1 1 1 1 1 1 1 1 1 1 1 1 1 1 1 1 1 1 1 1 1 1 1 1 1 1 1 1 1 
1 1 1 1 1 1 1 1 1 1 1 1 1 1 1 1 1 1 1 1 1 1 1 1 1 1 1 1 1 1 1 1 
1 1 1 1 1 1 1 1 1 1 1 1 1 1 1 1 1 1 1 1 1 1 1 1 1 1 1 1 1 1 1 1 
1 1 1 1 1 1 1 1 1 1 1 1 1 1 1 1 1 1 1 1 1 1 1 1 1 1 1 1 1 1 1 1 
1 1 1 1 1 1 1 1 1 1 1 1 1 1 1 1 1 1 1 1 1 1 1 1 1 1 1 1 1 1 1 1 
1 1 1 1 1 1 1 1 1 1 1 1 1 1 1 1 1 1 1 1 1 1 1 1 1 1 1 1 1 1 1 1 
1 1 1 1 1 1 1 1 1 1 1 1 1 1 1 1 1 1 1 1 1 1 1 1 1 1 1 1 1 1 1 1 
1 1 1 1 1 1 1 1 1 1 1 1 1 1 1 1 1 1 1 1 1 1 1 1 1 1 1 1 1 1 1 1 
1 1 1 1 1 1 1 1 1 1 1 1 1 1 1 1 1 1 1 1 1 1 1 1 1 1 1 1 1 1 1 1 
1 1 1 1 1 1 1 1 1 1 1 1 1 1 1 1 1 1 1 1 1 1 1 1 1 1 1 1 1 1 1 1 
0.01 0.01 0.01 0.01 0.01 0.01 0.01 0.01 0.01 0.01 0.01 0.01 0.01 0.01 0.01 0.01 0.01 0.01 0.01 0.01 0.01 0.01 0.01 0.01 0.01 0.01 0.01 0.01 0.01 0.01 0.01 0.01 
0.02 0.02 0.02 0.02 0.02 0.02 0.02 0.02 0.02 0.02 0.02 0.02 0.02 0.02 0.02 0.02 0.02 0.02 0.02 0.02 0.02 0.02 0.02 0.02 0.02 0.02 0.02 0.02 0.02 0.02 0.02 0.02 
0.03 0.03 0.03 0.03 0.03 0.03 0.03 0.03 0.03 0.03 0.03 0.03 0.03 0.03 0.03 0.03 0.03 0.03 0.03 0.03 0.03 0.03 0.03 0.03 0.03 0.03 0.03 0.03 0.03 0.03 0.03 0.03 
0.04 0.04 0.04 0.04 0.04 0.04 0.04 0.04 0.04 0.04 0.04 0.04 0.04 0.04 0.04 0.04 0.04 0.04 0.04 0.04 0.04 0.04 0.04 0.04 0.04 0.04 0.04 0.04 0.04 0.04 0.04 0.04 
0.125 0.125 0.125 0.125 0.125 0.125 0.125 0.125 0.125 0.125 0.125 0.125 0.125 0.125 0.125 0.125 0.125 0.125 0.125 0.125 0.125 0.125 0.125 0.125 0.125 0.125 0.125 0.125 0.125 0.125 0.125 0.125 
0.25 0.25 0.25 0.25 0.25 0.25 0.25 0.25 0.25 0.25 0.25 0.25 0.25 0.25 0.25 0.25 0.25 0.25 0.25 0.25 0.25 0.25 0.25 0.25 0.25 0.25 0.25 0.25 0.25 0.25 0.25 0.25 
0.375 0.375 0.375 0.375 0.375 0.375 0.375 0.375 0.375 0.375 0.375 0.375 0.375 0.375 0.375 0.375 0.375 0.375 0.375 0.375 0.375 0.375 0.375 0.375 0.375 0.375 0.375 0.375 0.375 0.375 0.375 0.375 
0.5 0.5 0.5 0.5 0.5 0.5 0.5 0.5 0.5 0.5 0.5 0.5 0.5 0.5 0.5 0.5 0.5 0.5 0.5 0.5 0.5 0.5 0.5 0.5 0.5 0.5 0.5 0.5 0.5 0.5 0.5 0.5 
0.625 0.625 0.625 0.625 0.625 0.625 0.625 0.625 0.625 0.625 0.625 0.625 0.625 0.625 0.625 0.625 0.625 0.625 0.625 0.625 0.625 0.625 0.625 0.625 0.625 0.625 0.625 0.625 0.625 0.625 0.625 0.625 
0.75 0.75 0.75 0.75 0.75 0.75 0.75 0.75 0.75 0.75 0.75 0.75 0.75 0.75 0.75 0.75 0.75 0.75 0.75 0.75 0.75 0.75 0.75 0.75 0.75 0.75 0.75 0.75 0.75 0.75 0.75 0.75 
0.875 0.875 0.875 0.875 0.875 0.875 0.875 0.875 0.875 0.875 0.875 0.875 0.875 0.875 0.875 0.875 0.875 0.875 0.875 0.875 0.875 0.875 0.875 0.875 0.875 0.875 0.875 0.875 0.875 0.875 0.875 0.875 
1 1 1 1 1 1 1 1 1 1 1 1 1 1 1 1 1 1 1 1 1 1 1 1 1 1 1 1 1 1 1 1 
